(set-logic HORN)
(declare-fun inv ((_ BitVec 64) (_ BitVec 64) (_ BitVec 64) (_ BitVec 64) (_ BitVec 64) (_ BitVec 64) ) Bool)
(assert (forall ((x (_ BitVec 64)) (n (_ BitVec 64)) (m (_ BitVec 64)) (z1 (_ BitVec 64)) (z2 (_ BitVec 64)) (z3 (_ BitVec 64))) 
       (=> ( and ( = x (_ bv0 64) ) ( = m (_ bv0 64) ) ) (inv x n m z1 z2 z3))))
(assert (forall ((x (_ BitVec 64)) (n (_ BitVec 64)) (m (_ BitVec 64)) (z1 (_ BitVec 64)) (z2 (_ BitVec 64)) (z3 (_ BitVec 64)) (x! (_ BitVec 64)) (n! (_ BitVec 64)) (m! (_ BitVec 64)) (z1! (_ BitVec 64)) (z2! (_ BitVec 64)) (z3! (_ BitVec 64))) 
       (=> (and (inv x n m z1 z2 z3) ( let ( ( a!1 ( and ( bvslt x n ) ( = x! ( bvadd x (_ bv1 64) ) ) ( = n! n ) ) ) ) ( or ( and a!1 ( = m! m ) ) ( and a!1 ( = m! x ) ) ) )) (inv x! n! m! z1! z2! z3!))))
(assert (forall ((x (_ BitVec 64)) (n (_ BitVec 64)) (m (_ BitVec 64)) (z1 (_ BitVec 64)) (z2 (_ BitVec 64)) (z3 (_ BitVec 64))) 
       (=> (inv x n m z1 z2 z3) ( not ( and ( bvsge x n ) ( bvsgt n (_ bv0 64) ) ( or ( bvsle n m ) ( bvslt m (_ bv0 64) ) ) ) ))))
(check-sat)
